param sigma
: 1   2 :=
1 0.00001 0.99999
2 0.10000 0.90000
3 0.20000 0.80000
4 0.30000 0.70000
5 0.40000 0.60000
6 0.50000 0.50000
7 0.90000 0.10000
8 0.80000 0.20000
9 0.70000 0.30000
10 0.60000 0.40000
11 0.99999 0.00001
;

set S:=
1 2 3 4 5 6 7 8 9 10 11 12 13 14 15 16 17 18 19 20 21 22 23 24 25 26 27 28 29 30 31 32 33 34 35 36 37 38 39 40 41 42 43 44 45 46 47 48 49 50 51 52 53 54 55 56 57 58 59 60 61 62 63 64 65 66 67 68 69 70 71 72 73 74 75 76 77 78 79 80 81 82 83 84 ;

set C:=
1 2 3 4 5 6 7 8 9 10 11 12 ;

set A:=
1 2 3 4 5 6 7 8 9 10 11 12 13 14 15 16 17 18 19 20 21 22 23 24 ;

set T:=
1_1_2 1_3_4 1_5_6 1_7_8 1_9_10
2_1_2 2_3_4 2_5_6 2_7_8 2_9_10
;

set R:=
1 2 3 4 5 ;

set Ac[1]:=
1 2 ;
set Ac[2]:=
3 4 ;
set Ac[3]:=
5 6 ;
set Ac[4]:=
7 8 ;
set Ac[5]:=
9 10 ;
set Ac[6]:=
11 12 ;
set Ac[7]:=
13 14 ;
set Ac[8]:=
15 16 ;
set Ac[9]:=
17 18 ;
set Ac[10]:=
19 20 ;
set Ac[11]:=
21 22 ;
set Ac[12]:=
23 24 ;

set Cs[1]:=
10 5 7 2 12 8 1 ;
set Cs[2]:=
10 5 2 4 6 1 ;
set Cs[3]:=
10 12 5 7 2 4 ;
set Cs[4]:=
10 2 5 1 9 7 ;
set Cs[5]:=
10 5 1 7 12 2 ;
set Cs[6]:=
10 5 7 2 8 ;
set Cs[7]:=
10 2 7 11 5 ;
set Cs[8]:=
10 5 2 4 7 1 ;
set Cs[9]:=
10 5 2 6 7 4 12 ;
set Cs[10]:=
10 5 2 3 4 ;
set Cs[11]:=
10 5 1 7 2 ;
set Cs[12]:=
10 5 2 6 8 ;
set Cs[13]:=
10 5 2 7 4 8 12 ;
set Cs[14]:=
10 5 2 8 7 3 12 ;
set Cs[15]:=
10 4 1 2 5 ;
set Cs[16]:=
10 2 5 7 1 8 ;
set Cs[17]:=
10 1 7 3 2 5 9 ;
set Cs[18]:=
10 5 7 2 8 1 4 ;
set Cs[19]:=
10 5 4 8 2 1 ;
set Cs[20]:=
10 5 7 2 12 ;
set Cs[21]:=
10 5 7 1 2 12 ;
set Cs[22]:=
10 5 7 2 1 11 12 ;
set Cs[23]:=
10 6 7 5 4 1 ;
set Cs[24]:=
10 2 5 7 12 ;
set Cs[25]:=
10 1 5 7 6 ;
set Cs[26]:=
10 6 2 5 7 1 ;
set Cs[27]:=
10 2 12 7 5 1 ;
set Cs[28]:=
10 2 5 3 7 ;
set Cs[29]:=
10 5 11 1 7 2 ;
set Cs[30]:=
10 5 7 4 8 ;
set Cs[31]:=
10 2 5 7 6 1 8 ;
set Cs[32]:=
10 4 1 5 2 11 ;
set Cs[33]:=
10 2 1 5 7 ;
set Cs[34]:=
10 2 5 6 12 ;
set Cs[35]:=
10 1 5 6 7 ;
set Cs[36]:=
10 2 11 7 5 ;
set Cs[37]:=
10 5 4 7 2 1 ;
set Cs[38]:=
10 5 2 8 1 7 ;
set Cs[39]:=
10 5 1 4 2 6 ;
set Cs[40]:=
10 1 5 2 7 8 3 ;
set Cs[41]:=
10 4 5 2 1 ;
set Cs[42]:=
10 2 5 7 4 6 1 ;
set Cs[43]:=
10 5 2 7 6 1 4 ;
set Cs[44]:=
10 2 11 7 1 ;
set Cs[45]:=
10 5 1 2 7 12 ;
set Cs[46]:=
10 5 9 12 4 7 ;
set Cs[47]:=
10 7 5 2 11 12 ;
set Cs[48]:=
10 5 11 6 1 7 ;
set Cs[49]:=
10 2 5 7 1 ;
set Cs[50]:=
10 5 7 4 12 2 1 ;
set Cs[51]:=
10 5 7 1 8 2 ;
set Cs[52]:=
10 5 11 6 7 ;
set Cs[53]:=
10 12 6 5 2 7 3 ;
set Cs[54]:=
10 7 5 2 4 1 ;
set Cs[55]:=
10 7 1 5 2 8 ;
set Cs[56]:=
10 5 2 7 8 ;
set Cs[57]:=
10 1 4 5 7 11 12 ;
set Cs[58]:=
10 5 7 2 6 ;
set Cs[59]:=
10 5 1 8 7 ;
set Cs[60]:=
10 5 2 7 9 12 1 ;
set Cs[61]:=
10 5 7 12 2 1 11 ;
set Cs[62]:=
10 5 1 2 7 ;
set Cs[63]:=
10 7 6 1 2 11 ;
set Cs[64]:=
10 2 5 7 4 ;
set Cs[65]:=
10 7 5 2 1 12 ;
set Cs[66]:=
10 7 5 2 6 ;
set Cs[67]:=
10 5 7 2 11 6 1 ;
set Cs[68]:=
10 5 7 2 1 3 ;
set Cs[69]:=
10 7 5 8 2 ;
set Cs[70]:=
10 2 5 11 1 7 12 ;
set Cs[71]:=
10 5 7 2 8 4 1 ;
set Cs[72]:=
10 7 2 5 12 1 4 ;
set Cs[73]:=
10 4 5 7 2 1 ;
set Cs[74]:=
10 5 7 12 11 2 ;
set Cs[75]:=
10 7 5 2 1 ;
set Cs[76]:=
5 10 12 4 2 7 8 ;
set Cs[77]:=
10 7 1 11 5 ;
set Cs[78]:=
10 1 2 7 5 12 ;
set Cs[79]:=
10 7 2 5 1 4 12 ;
set Cs[80]:=
10 2 7 1 5 ;
set Cs[81]:=
10 1 5 6 2 7 8 ;
set Cs[82]:=
10 1 5 7 2 8 ;
set Cs[83]:=
10 5 6 8 1 4 ;
set Cs[84]:=
2 10 12 1 7 5 3 ;

set Ra[1]:=
1 2 3 4 5 ;
set Ra[2]:=
1 2 3 4 5 ;
set Ra[3]:=
1 2 3 4 5 ;
set Ra[4]:=
1 2 3 4 5 ;
set Ra[5]:=
1 2 3 4 5 ;
set Ra[6]:=
1 2 3 4 5 ;
set Ra[7]:=
1 2 3 4 5 ;
set Ra[8]:=
1 2 3 4 5 ;
set Ra[9]:=
1 2 3 4 5 ;
set Ra[10]:=
1 2 3 4 5 ;
set Ra[11]:=
1 2 3 4 5 ;
set Ra[12]:=
1 2 3 4 5 ;
set Ra[13]:=
1 2 3 4 5 ;
set Ra[14]:=
1 2 3 4 5 ;
set Ra[15]:=
1 2 3 4 5 ;
set Ra[16]:=
1 2 3 4 5 ;
set Ra[17]:=
1 2 3 4 5 ;
set Ra[18]:=
1 2 3 4 5 ;
set Ra[19]:=
1 2 3 4 5 ;
set Ra[20]:=
1 2 3 4 5 ;
set Ra[21]:=
1 2 3 4 5 ;
set Ra[22]:=
1 2 3 4 5 ;
set Ra[23]:=
1 2 3 4 5 ;
set Ra[24]:=
1 2 3 4 5 ;

set Ts[1]:=
1_9_10 2_7_8 ;
set Ts[2]:=
1_7_8 1_9_10 ;
set Ts[3]:=
1_7_8 2_3_4 1_1_2 1_9_10 ;
set Ts[4]:=
2_3_4 1_9_10 1_5_6 ;
set Ts[5]:=
1_9_10 2_5_6 ;
set Ts[6]:=
1_3_4 1_9_10 ;
set Ts[7]:=
1_3_4 1_7_8 ;
set Ts[8]:=
1_5_6 2_3_4 2_7_8 ;
set Ts[9]:=
2_7_8 1_1_2 2_5_6 2_9_10 ;
set Ts[10]:=
1_1_2 1_9_10 ;
set Ts[11]:=
1_7_8 2_5_6 1_9_10 ;
set Ts[12]:=
1_7_8 1_1_2 2_9_10 ;
set Ts[13]:=
1_7_8 2_1_2 2_3_4 ;
set Ts[14]:=
2_3_4 1_3_4 ;
set Ts[15]:=
2_1_2 1_5_6 2_9_10 1_9_10 ;
set Ts[16]:=
1_7_8 2_7_8 1_5_6 ;
set Ts[17]:=
1_9_10 2_3_4 1_5_6 2_7_8 ;
set Ts[18]:=
2_5_6 2_3_4 ;
set Ts[19]:=
1_7_8 1_5_6 ;
set Ts[20]:=
1_5_6 1_1_2 1_9_10 ;
set Ts[21]:=
2_9_10 2_3_4 ;
set Ts[22]:=
2_9_10 1_9_10 2_3_4 ;
set Ts[23]:=
2_5_6 2_1_2 ;
set Ts[24]:=
2_9_10 2_3_4 1_9_10 ;
set Ts[25]:=
2_7_8 1_7_8 1_1_2 1_3_4 ;
set Ts[26]:=
2_3_4 2_9_10 1_3_4 2_5_6 ;
set Ts[27]:=
1_9_10 2_1_2 1_7_8 ;
set Ts[28]:=
1_1_2 2_3_4 1_5_6 2_9_10 ;
set Ts[29]:=
1_7_8 2_1_2 1_5_6 2_7_8 ;
set Ts[30]:=
2_9_10 1_3_4 2_1_2 ;
set Ts[31]:=
1_7_8 1_5_6 2_5_6 1_9_10 ;
set Ts[32]:=
2_1_2 2_3_4 ;
set Ts[33]:=
1_5_6 1_1_2 2_9_10 ;
set Ts[34]:=
1_1_2 2_5_6 1_5_6 ;
set Ts[35]:=
2_1_2 1_5_6 2_3_4 1_3_4 ;
set Ts[36]:=
1_7_8 1_5_6 ;
set Ts[37]:=
1_9_10 2_9_10 1_1_2 ;
set Ts[38]:=
2_5_6 1_3_4 2_1_2 ;
set Ts[39]:=
2_7_8 2_9_10 ;
set Ts[40]:=
1_1_2 2_5_6 ;
set Ts[41]:=
1_9_10 1_1_2 2_5_6 ;
set Ts[42]:=
2_7_8 1_7_8 1_3_4 2_1_2 ;
set Ts[43]:=
1_7_8 1_1_2 ;
set Ts[44]:=
1_9_10 2_5_6 ;
set Ts[45]:=
1_3_4 1_1_2 2_7_8 ;
set Ts[46]:=
1_3_4 1_5_6 ;
set Ts[47]:=
1_9_10 1_5_6 1_3_4 ;
set Ts[48]:=
1_9_10 2_9_10 ;
set Ts[49]:=
2_7_8 1_7_8 1_1_2 2_3_4 ;
set Ts[50]:=
1_1_2 2_7_8 1_7_8 ;
set Ts[51]:=
2_5_6 1_5_6 ;
set Ts[52]:=
1_9_10 2_9_10 ;
set Ts[53]:=
1_9_10 1_3_4 2_1_2 1_1_2 ;
set Ts[54]:=
2_3_4 1_5_6 2_7_8 ;
set Ts[55]:=
2_5_6 1_5_6 ;
set Ts[56]:=
2_5_6 1_3_4 ;
set Ts[57]:=
2_5_6 2_1_2 1_9_10 1_3_4 ;
set Ts[58]:=
1_7_8 2_7_8 1_3_4 ;
set Ts[59]:=
1_9_10 2_1_2 2_5_6 1_3_4 ;
set Ts[60]:=
2_3_4 1_1_2 1_3_4 ;
set Ts[61]:=
1_3_4 1_1_2 2_3_4 ;
set Ts[62]:=
2_3_4 1_9_10 ;
set Ts[63]:=
1_5_6 2_1_2 1_1_2 ;
set Ts[64]:=
2_7_8 1_5_6 1_9_10 1_7_8 ;
set Ts[65]:=
2_9_10 1_5_6 2_3_4 2_1_2 ;
set Ts[66]:=
1_7_8 1_3_4 1_9_10 1_1_2 ;
set Ts[67]:=
2_9_10 2_1_2 1_7_8 1_1_2 ;
set Ts[68]:=
2_9_10 1_1_2 ;
set Ts[69]:=
1_3_4 1_5_6 2_5_6 ;
set Ts[70]:=
1_5_6 2_3_4 2_5_6 ;
set Ts[71]:=
1_5_6 1_3_4 ;
set Ts[72]:=
2_3_4 2_5_6 2_9_10 1_7_8 ;
set Ts[73]:=
1_3_4 1_7_8 ;
set Ts[74]:=
1_1_2 2_5_6 1_9_10 ;
set Ts[75]:=
2_9_10 1_9_10 ;
set Ts[76]:=
2_3_4 1_3_4 ;
set Ts[77]:=
2_7_8 2_3_4 ;
set Ts[78]:=
1_3_4 1_9_10 ;
set Ts[79]:=
2_9_10 1_1_2 2_3_4 1_9_10 ;
set Ts[80]:=
1_5_6 2_1_2 2_7_8 ;
set Ts[81]:=
2_3_4 1_5_6 ;
set Ts[82]:=
1_5_6 2_7_8 ;
set Ts[83]:=
1_5_6 2_5_6 ;
set Ts[84]:=
1_1_2 1_5_6 ;

param rho:=
1 84
2 84
3 84
4 84
5 84
;

param sigma_class:=
1 84
2 84
3 84
4 84
5 84
6 84
7 84
;

param kmin:=
1 3
2 3
3 3
4 3
5 3
6 2
7 2
8 3
9 3
10 2
11 2
12 2
13 3
14 3
15 2
16 3
17 3
18 3
19 3
20 2
21 3
22 3
23 3
24 2
25 2
26 3
27 3
28 2
29 3
30 2
31 3
32 3
33 2
34 2
35 2
36 2
37 3
38 3
39 3
40 3
41 2
42 3
43 3
44 2
45 3
46 3
47 3
48 3
49 2
50 3
51 3
52 2
53 3
54 3
55 3
56 2
57 3
58 2
59 2
60 3
61 3
62 2
63 3
64 2
65 3
66 2
67 3
68 3
69 2
70 3
71 3
72 3
73 3
74 3
75 2
76 3
77 2
78 3
79 3
80 2
81 3
82 3
83 3
84 3
;

param kmax:=
1 7
2 6
3 6
4 6
5 6
6 5
7 5
8 6
9 7
10 5
11 5
12 5
13 7
14 7
15 5
16 6
17 7
18 7
19 6
20 5
21 6
22 7
23 6
24 5
25 5
26 6
27 6
28 5
29 6
30 5
31 7
32 6
33 5
34 5
35 5
36 5
37 6
38 6
39 6
40 7
41 5
42 7
43 7
44 5
45 6
46 6
47 6
48 6
49 5
50 7
51 6
52 5
53 7
54 6
55 6
56 5
57 7
58 5
59 5
60 7
61 7
62 5
63 6
64 5
65 6
66 5
67 7
68 6
69 5
70 7
71 7
72 7
73 6
74 6
75 5
76 7
77 5
78 6
79 7
80 5
81 7
82 6
83 6
84 7
;

